\ENCODING=ISO-8859-1
\Problem name: instances

Maximize
 obj:
Subject To
 c1: 90 x1 + 61 x2 + 32 x3 + 73 x4 + 91 x6 + 29 x7 + 51 x8 + 62 x9 + 10 x10
     <= 254
 c2: 65 x1 + 7 x2 + 39 x3 + 39 x4 + 37 x5 + 39 x6 + 87 x7 + 96 x8 + 68 x10
     <= 221
 c3: 59 x1 + 20 x2 + 38 x3 - 40 x4 + 13 x5 + 12 x6 + 63 x7 + 2 x9 + 10 x10
     <= 124
 c4: 47 x1 + 49 x2 + 70 x3 + 58 x4 + 12 x5 + 53 x6 + 77 x7 + 69 x8 + 29 x10
     <= 313
 c5: 60 x1 + 66 x2 + 9 x3 + 24 x4 + 46 x5 + 76 x6 + 25 x7 + 39 x8 + 67 x9
     + 56 x10 <= 387
Bounds
      x1 >= 0
      x2 >= 0
      x3 >= 0
      x4 >= 0
      x5 >= 0
      x6 >= 0
      x7 >= 0
      x8 >= 0
      x9 >= 0
      x10 >= 0
Generals
 x1  x2  x3  x4  x5  x6  x7  x8  x9  x10 
End
